
  19    0


   0  12 2 3 4 5 6 7 8 9 10 16 17 18 
   6   4 15 14 13 12 
   2   2 13 11 
  10   1 12 
   7   1 14 
   3   1 13 
   3   1 12 
   9   1 11 
   7   1 11 
   5   1 11 
   1   1 19
   6   1 19
   5   1 19
   8   1 19
   8   1 19
   6   1 19
   5   1 19
   9   1 19
   0   0 
